n_res = 4;
rc = [ 13, 11, 11, 9 ];
n_tasks = 30;
d = [ 10, 4, 3, 1, 5, 4, 6, 4, 4, 7, 2, 3, 5, 6, 10, 4, 3, 7, 9, 4, 3, 9, 3, 10, 8, 4, 8, 1, 10, 9 ];
rr = [| 0, 0, 0, 6, 0, 0, 0, 5, 0, 10, 0, 3, 0, 0, 0, 0, 9, 7, 0, 0, 0, 0, 0, 0, 0, 0, 0, 0, 0, 0
      | 0, 9, 0, 0, 0, 10, 0, 0, 0, 0, 0, 0, 0, 0, 9, 0, 0, 0, 0, 2, 0, 0, 6, 0, 4, 0, 0, 8, 3, 4
      | 5, 0, 1, 0, 4, 0, 0, 0, 0, 0, 9, 0, 0, 8, 0, 8, 0, 0, 0, 0, 3, 9, 0, 2, 0, 4, 4, 0, 0, 0
      | 0, 0, 0, 0, 0, 0, 7, 0, 8, 0, 0, 0, 3, 0, 0, 0, 0, 0, 4, 0, 0, 0, 0, 0, 0, 0, 0, 0, 0, 0 |];
suc = [ { 6 },
       { 5 },
       { 4, 5, 8 },
       { 7, 18, 20 },
       { 22 },
       { 18 },
       { 9, 14, 16 },
       { 13, 17, 23 },
       { 10, 17, 22 },
       { 11, 12, 21 },
       { 15 },
       { 19, 27 },
       { 19, 26 },
       { 23, 30 },
       { 19, 25 },
       { 21, 22, 26 },
       { 24 },
       { 21, 25, 30 },
       { 24 },
       { 24, 25 },
       { 29 },
       { 23, 27 },
       { 28, 29 },
       { 28, 30 },
       { 26, 28 },
       { 27 },
       { 29 },
       {  },
       {  },
       {  } ];
